certificates/rado_a15_c35_N66.cnf
c Rad2 upper bound instance: x1 + 15*x2 - x3 = 35, interval [1,66]
p cnf 66 482
1 3 11 0
-1 -3 -11 0
1 4 26 0
-1 -4 -26 0
1 5 41 0
-1 -5 -41 0
1 6 56 0
-1 -6 -56 0
2 3 12 0
-2 -3 -12 0
2 4 27 0
-2 -4 -27 0
2 5 42 0
-2 -5 -42 0
2 6 57 0
-2 -6 -57 0
3 13 0
-3 -13 0
3 4 28 0
-3 -4 -28 0
3 5 43 0
-3 -5 -43 0
3 6 58 0
-3 -6 -58 0
3 4 14 0
-3 -4 -14 0
4 29 0
-4 -29 0
4 5 44 0
-4 -5 -44 0
4 6 59 0
-4 -6 -59 0
3 5 15 0
-3 -5 -15 0
4 5 30 0
-4 -5 -30 0
5 45 0
-5 -45 0
5 6 60 0
-5 -6 -60 0
1 2 6 0
-1 -2 -6 0
3 6 16 0
-3 -6 -16 0
4 6 31 0
-4 -6 -31 0
5 6 46 0
-5 -6 -46 0
6 61 0
-6 -61 0
2 7 0
-2 -7 0
3 7 17 0
-3 -7 -17 0
4 7 32 0
-4 -7 -32 0
5 7 47 0
-5 -7 -47 0
6 7 62 0
-6 -7 -62 0
2 3 8 0
-2 -3 -8 0
3 8 18 0
-3 -8 -18 0
4 8 33 0
-4 -8 -33 0
5 8 48 0
-5 -8 -48 0
6 8 63 0
-6 -8 -63 0
2 4 9 0
-2 -4 -9 0
3 9 19 0
-3 -9 -19 0
4 9 34 0
-4 -9 -34 0
5 9 49 0
-5 -9 -49 0
6 9 64 0
-6 -9 -64 0
2 5 10 0
-2 -5 -10 0
3 10 20 0
-3 -10 -20 0
4 10 35 0
-4 -10 -35 0
5 10 50 0
-5 -10 -50 0
6 10 65 0
-6 -10 -65 0
2 6 11 0
-2 -6 -11 0
3 11 21 0
-3 -11 -21 0
4 11 36 0
-4 -11 -36 0
5 11 51 0
-5 -11 -51 0
6 11 66 0
-6 -11 -66 0
2 7 12 0
-2 -7 -12 0
3 12 22 0
-3 -12 -22 0
4 12 37 0
-4 -12 -37 0
5 12 52 0
-5 -12 -52 0
2 8 13 0
-2 -8 -13 0
3 13 23 0
-3 -13 -23 0
4 13 38 0
-4 -13 -38 0
5 13 53 0
-5 -13 -53 0
2 9 14 0
-2 -9 -14 0
3 14 24 0
-3 -14 -24 0
4 14 39 0
-4 -14 -39 0
5 14 54 0
-5 -14 -54 0
2 10 15 0
-2 -10 -15 0
3 15 25 0
-3 -15 -25 0
4 15 40 0
-4 -15 -40 0
5 15 55 0
-5 -15 -55 0
2 11 16 0
-2 -11 -16 0
3 16 26 0
-3 -16 -26 0
4 16 41 0
-4 -16 -41 0
5 16 56 0
-5 -16 -56 0
2 12 17 0
-2 -12 -17 0
3 17 27 0
-3 -17 -27 0
4 17 42 0
-4 -17 -42 0
5 17 57 0
-5 -17 -57 0
2 13 18 0
-2 -13 -18 0
3 18 28 0
-3 -18 -28 0
4 18 43 0
-4 -18 -43 0
5 18 58 0
-5 -18 -58 0
2 14 19 0
-2 -14 -19 0
3 19 29 0
-3 -19 -29 0
4 19 44 0
-4 -19 -44 0
5 19 59 0
-5 -19 -59 0
2 15 20 0
-2 -15 -20 0
3 20 30 0
-3 -20 -30 0
4 20 45 0
-4 -20 -45 0
5 20 60 0
-5 -20 -60 0
1 21 0
-1 -21 0
2 16 21 0
-2 -16 -21 0
3 21 31 0
-3 -21 -31 0
4 21 46 0
-4 -21 -46 0
5 21 61 0
-5 -21 -61 0
1 2 22 0
-1 -2 -22 0
2 17 22 0
-2 -17 -22 0
3 22 32 0
-3 -22 -32 0
4 22 47 0
-4 -22 -47 0
5 22 62 0
-5 -22 -62 0
1 3 23 0
-1 -3 -23 0
2 18 23 0
-2 -18 -23 0
3 23 33 0
-3 -23 -33 0
4 23 48 0
-4 -23 -48 0
5 23 63 0
-5 -23 -63 0
1 4 24 0
-1 -4 -24 0
2 19 24 0
-2 -19 -24 0
3 24 34 0
-3 -24 -34 0
4 24 49 0
-4 -24 -49 0
5 24 64 0
-5 -24 -64 0
1 5 25 0
-1 -5 -25 0
2 20 25 0
-2 -20 -25 0
3 25 35 0
-3 -25 -35 0
4 25 50 0
-4 -25 -50 0
5 25 65 0
-5 -25 -65 0
1 6 26 0
-1 -6 -26 0
2 21 26 0
-2 -21 -26 0
3 26 36 0
-3 -26 -36 0
4 26 51 0
-4 -26 -51 0
5 26 66 0
-5 -26 -66 0
1 7 27 0
-1 -7 -27 0
2 22 27 0
-2 -22 -27 0
3 27 37 0
-3 -27 -37 0
4 27 52 0
-4 -27 -52 0
1 8 28 0
-1 -8 -28 0
2 23 28 0
-2 -23 -28 0
3 28 38 0
-3 -28 -38 0
4 28 53 0
-4 -28 -53 0
1 9 29 0
-1 -9 -29 0
2 24 29 0
-2 -24 -29 0
3 29 39 0
-3 -29 -39 0
4 29 54 0
-4 -29 -54 0
1 10 30 0
-1 -10 -30 0
2 25 30 0
-2 -25 -30 0
3 30 40 0
-3 -30 -40 0
4 30 55 0
-4 -30 -55 0
1 11 31 0
-1 -11 -31 0
2 26 31 0
-2 -26 -31 0
3 31 41 0
-3 -31 -41 0
4 31 56 0
-4 -31 -56 0
1 12 32 0
-1 -12 -32 0
2 27 32 0
-2 -27 -32 0
3 32 42 0
-3 -32 -42 0
4 32 57 0
-4 -32 -57 0
1 13 33 0
-1 -13 -33 0
2 28 33 0
-2 -28 -33 0
3 33 43 0
-3 -33 -43 0
4 33 58 0
-4 -33 -58 0
1 14 34 0
-1 -14 -34 0
2 29 34 0
-2 -29 -34 0
3 34 44 0
-3 -34 -44 0
4 34 59 0
-4 -34 -59 0
1 15 35 0
-1 -15 -35 0
2 30 35 0
-2 -30 -35 0
3 35 45 0
-3 -35 -45 0
4 35 60 0
-4 -35 -60 0
1 16 36 0
-1 -16 -36 0
2 31 36 0
-2 -31 -36 0
3 36 46 0
-3 -36 -46 0
4 36 61 0
-4 -36 -61 0
1 17 37 0
-1 -17 -37 0
2 32 37 0
-2 -32 -37 0
3 37 47 0
-3 -37 -47 0
4 37 62 0
-4 -37 -62 0
1 18 38 0
-1 -18 -38 0
2 33 38 0
-2 -33 -38 0
3 38 48 0
-3 -38 -48 0
4 38 63 0
-4 -38 -63 0
1 19 39 0
-1 -19 -39 0
2 34 39 0
-2 -34 -39 0
3 39 49 0
-3 -39 -49 0
4 39 64 0
-4 -39 -64 0
1 20 40 0
-1 -20 -40 0
2 35 40 0
-2 -35 -40 0
3 40 50 0
-3 -40 -50 0
4 40 65 0
-4 -40 -65 0
1 21 41 0
-1 -21 -41 0
2 36 41 0
-2 -36 -41 0
3 41 51 0
-3 -41 -51 0
4 41 66 0
-4 -41 -66 0
1 22 42 0
-1 -22 -42 0
2 37 42 0
-2 -37 -42 0
3 42 52 0
-3 -42 -52 0
1 23 43 0
-1 -23 -43 0
2 38 43 0
-2 -38 -43 0
3 43 53 0
-3 -43 -53 0
1 24 44 0
-1 -24 -44 0
2 39 44 0
-2 -39 -44 0
3 44 54 0
-3 -44 -54 0
1 25 45 0
-1 -25 -45 0
2 40 45 0
-2 -40 -45 0
3 45 55 0
-3 -45 -55 0
1 26 46 0
-1 -26 -46 0
2 41 46 0
-2 -41 -46 0
3 46 56 0
-3 -46 -56 0
1 27 47 0
-1 -27 -47 0
2 42 47 0
-2 -42 -47 0
3 47 57 0
-3 -47 -57 0
1 28 48 0
-1 -28 -48 0
2 43 48 0
-2 -43 -48 0
3 48 58 0
-3 -48 -58 0
1 29 49 0
-1 -29 -49 0
2 44 49 0
-2 -44 -49 0
3 49 59 0
-3 -49 -59 0
1 30 50 0
-1 -30 -50 0
2 45 50 0
-2 -45 -50 0
3 50 60 0
-3 -50 -60 0
1 31 51 0
-1 -31 -51 0
2 46 51 0
-2 -46 -51 0
3 51 61 0
-3 -51 -61 0
1 32 52 0
-1 -32 -52 0
2 47 52 0
-2 -47 -52 0
3 52 62 0
-3 -52 -62 0
1 33 53 0
-1 -33 -53 0
2 48 53 0
-2 -48 -53 0
3 53 63 0
-3 -53 -63 0
1 34 54 0
-1 -34 -54 0
2 49 54 0
-2 -49 -54 0
3 54 64 0
-3 -54 -64 0
1 35 55 0
-1 -35 -55 0
2 50 55 0
-2 -50 -55 0
3 55 65 0
-3 -55 -65 0
1 36 56 0
-1 -36 -56 0
2 51 56 0
-2 -51 -56 0
3 56 66 0
-3 -56 -66 0
1 37 57 0
-1 -37 -57 0
2 52 57 0
-2 -52 -57 0
1 38 58 0
-1 -38 -58 0
2 53 58 0
-2 -53 -58 0
1 39 59 0
-1 -39 -59 0
2 54 59 0
-2 -54 -59 0
1 40 60 0
-1 -40 -60 0
2 55 60 0
-2 -55 -60 0
1 41 61 0
-1 -41 -61 0
2 56 61 0
-2 -56 -61 0
1 42 62 0
-1 -42 -62 0
2 57 62 0
-2 -57 -62 0
1 43 63 0
-1 -43 -63 0
2 58 63 0
-2 -58 -63 0
1 44 64 0
-1 -44 -64 0
2 59 64 0
-2 -59 -64 0
1 45 65 0
-1 -45 -65 0
2 60 65 0
-2 -60 -65 0
1 46 66 0
-1 -46 -66 0
2 61 66 0
-2 -61 -66 0
