certificates/rado_a15_c35_N66.drat
-61 -62 -66 0
-62 -66 0
d -61 -62 -66 0
1 11 0
-6 -66 0
d -11 -6 -66 0
-66 0
2 6 0
6 0
-61 0
2 0
-1 0
-7 0
-11 0
-57 0
21 0
46 0
41 0
31 0
3 0
27 0
0
